c NeuroCodeBench 2.0 CNF formula with verdict Unsat
p cnf 66 105
1 -37 -34 41 25 57 -60 -52 21 0
1 -37 -34 41 -25 -64 0
1 37 -34 -43 19 -2 -49 -20 -47 0
1 37 -34 -43 -19 56 27 0
1 -37 -34 41 -25 64 0
-1 18 -16 -42 -66 34 28 50 0
1 -37 -34 41 25 -57 62 -52 0
-1 -18 60 47 0
1 37 -34 43 -19 35 0
1 -37 34 13 -56 27 -12 0
-1 18 -16 42 -37 -34 0
1 -37 -34 41 25 57 60 38 0
1 37 34 -51 23 -65 -41 55 0
-1 -18 -60 -4 56 -12 -52 48 0
-1 18 -16 -42 66 -46 31 0
-1 -18 -60 -4 56 12 0
1 37 -34 -43 -19 -56 -29 28 0
1 -37 34 -13 -11 -15 -55 -2 0
-1 18 16 62 -11 -57 -29 -23 28 0
1 -37 -34 -41 31 51 0
-1 18 16 62 -11 -57 29 0
1 37 -34 -43 -19 56 -27 4 -9 0
-1 -18 -60 4 -42 -6 -35 0
1 37 34 -51 -23 -18 0
1 37 -34 -43 -19 56 -27 4 9 0
1 37 34 51 54 -9 0
1 37 34 -51 23 -65 41 -60 0
-1 18 -16 -42 66 46 61 0
-1 18 -16 42 -37 34 0
1 -37 34 13 56 0
1 37 -34 -43 19 -2 49 -32 63 0
-1 18 -16 -42 66 -46 -31 -58 0
-1 -18 -60 4 -42 6 14 0
1 -37 34 -13 -11 -15 55 0
1 -37 34 13 -56 27 12 -25 0
1 -37 34 -13 -11 -15 -55 2 0
1 -37 -34 41 25 57 60 -38 0
1 37 -34 43 19 18 -17 -33 -32 0
1 37 -34 -43 19 -2 -49 20 -12 0
1 37 -34 43 19 18 -17 -33 32 0
1 37 -34 43 19 -18 0
1 37 -34 -43 -19 -56 29 -5 49 0
1 -37 34 -13 -11 15 0
-1 -18 60 -47 13 0
1 37 -34 -43 -19 -56 29 -5 -49 -64 0
1 37 34 -51 23 -65 -41 -55 0
1 37 -34 -43 19 2 36 48 -26 0
1 37 -34 -43 -19 -56 29 -5 -49 64 0
1 37 -34 -43 19 -2 49 32 0
1 37 34 -51 23 65 45 0
-1 18 -16 -42 -66 -34 39 0
1 -37 34 13 -56 -27 -18 0
-1 -18 -60 4 -42 -6 35 0
1 -37 -34 41 25 57 -60 -52 -21 0
1 -37 34 13 -56 27 12 25 0
1 -37 34 13 -56 -27 18 0
-1 18 -16 -42 66 46 -61 0
1 37 -34 -43 -19 -56 -29 -28 0
1 -37 -34 41 25 -57 62 52 0
-1 18 -16 -42 66 -46 -31 58 0
1 -37 -34 41 25 57 -60 52 38 0
-1 18 -16 -42 -66 34 -28 21 0
-1 18 -16 -42 -66 -34 -39 0
-1 -18 -60 -4 -56 0
1 37 -34 -43 19 -2 49 -32 -63 0
1 37 -34 -43 19 2 36 48 26 0
-1 -18 -60 4 42 -16 0
1 37 -34 43 19 18 -17 33 0
1 37 34 -51 -23 18 24 0
-1 -18 -60 -4 56 -12 52 0
1 37 -34 -43 -19 -56 29 5 -57 0
-1 -18 -60 4 -42 6 -14 40 0
-1 18 -16 -42 -66 34 28 -50 0
1 -37 -34 -41 -31 0
1 37 -34 -43 -19 56 -27 -4 0
-1 18 16 62 -11 -57 -29 -23 -28 0
-1 18 -16 -42 -66 34 -28 -21 0
1 37 -34 -43 -19 -56 29 5 57 -17 0
-1 -18 60 -47 -13 0
-1 -18 -60 4 42 16 0
-1 18 -16 42 37 7 0
-1 -18 -60 4 -42 6 -14 -40 0
1 -37 -34 -41 31 -51 0
1 -37 -34 41 25 57 -60 52 -38 0
-1 18 16 62 -11 57 0
1 37 -34 -43 19 2 -36 0
1 37 -34 43 -19 -35 0
1 37 34 -51 23 65 -45 0
1 37 -34 43 19 18 17 0
1 37 -34 -43 19 -2 -49 -20 47 0
1 37 34 51 54 9 -48 0
-1 18 16 62 -11 -57 -29 23 0
1 37 34 -51 -23 18 -24 0
-1 18 16 -62 0
1 -37 -34 41 25 -57 -62 0
1 37 -34 -43 19 -2 -49 20 12 0
1 37 -34 -43 19 2 36 -48 0
1 37 34 -51 23 -65 41 60 0
1 -37 34 -13 11 0
-1 18 -16 42 37 -7 0
-1 18 16 62 11 0
1 37 34 51 54 9 48 0
1 37 34 51 -54 0
1 37 -34 -43 -19 -56 29 5 57 17 0
-1 -18 -60 -4 56 -12 -52 -48 0
